BAYES
37
2 2 2 2 2 2 2 2 2 2 2 2 2 3 3 3 3 3 3 3 3 3 3 3 3 3 3 3 3 3 4 4 4 4 4 4 4
37
1 0
2 33 13
3 29 15 14
5 29 27 8 13 1
3 28 17 15
2 22 16
1 2
1 3
1 4
3 34 13 30
1 5
2 10 6
2 1 17
3 17 4 18
3 17 3 19
3 17 3 20
1 7
1 8
1 21
1 9
3 10 7 22
1 10
3 34 21 31
1 23
2 11 24
2 22 25
4 36 9 21 32
1 11
3 33 5 26
3 12 26 27
3 11 21 12
3 10 7 28
2 0 29
3 34 21 33
4 36 9 21 34
2 23 35
3 35 2 36

2
0.01 0.99
12
0.01 0.01 0.04 0.9 0.01 0.01 0.92 0.09 0.98 0.98 0.04 0.01
27
0.98 0.98 0.3 0.98 0.1 0.05 0.9 0.05 0.01 0.01 0.01 0.6 0.01 0.85 0.4 0.09 0.2 0.09 0.01 0.01 0.1 0.01 0.05 0.55 0.01 0.75 0.9
108
0.01 0.01 0.7 0.01 0.05 0.7 0.01 0.05 0.95 0.01 0.05 0.7 0.01 0.05 0.95 0.05 0.05 0.95 0.01 0.01 0.7 0.01 0.05 0.7 0.01 0.05 0.99 0.01 0.05 0.7 0.01 0.05 0.99 0.05 0.05 0.99 0.01 0.01 0.1 0.01 0.01 0.1 0.01 0.01 0.3 0.01 0.01 0.1 0.01 0.01 0.3 0.01 0.01 0.3 0.99 0.99 0.3 0.99 0.95 0.3 0.99 0.95 0.05 0.99 0.95 0.3 0.99 0.95 0.05 0.95 0.95 0.05 0.99 0.99 0.3 0.99 0.95 0.3 0.99 0.95 0.01 0.99 0.95 0.3 0.99 0.95 0.01 0.95 0.95 0.01 0.99 0.99 0.9 0.99 0.99 0.9 0.99 0.99 0.7 0.99 0.99 0.9 0.99 0.99 0.7 0.99 0.99 0.7
27
0.98 0.95 0.3 0.95 0.04 0.01 0.8 0.01 0.01 0.01 0.04 0.69 0.04 0.95 0.3 0.19 0.04 0.01 0.01 0.01 0.01 0.01 0.01 0.69 0.01 0.95 0.98
9
0.95 0.04 0.01 0.04 0.95 0.29 0.01 0.01 0.7
2
0.1 0.9
2
0.1 0.9
2
0.05 0.95
48
0.97 0.01 0.01 0.01 0.01 0.97 0.01 0.01 0.01 0.01 0.97 0.01 0.01 0.97 0.01 0.01 0.97 0.01 0.01 0.01 0.97 0.01 0.01 0.01 0.01 0.01 0.97 0.01 0.01 0.01 0.97 0.01 0.01 0.97 0.01 0.01 0.01 0.01 0.01 0.97 0.01 0.01 0.01 0.97 0.01 0.01 0.01 0.97
2
0.05 0.95
4
0.9 0.01 0.1 0.99
6
0.05 0.01 0.9 0.09 0.05 0.9
18
0.98 0.3 0.01 0.4 0.98 0.01 0.01 0.4 0.98 0.59 0.01 0.01 0.01 0.3 0.01 0.01 0.01 0.98
18
0.3333333 0.3333333 0.01 0.3333333 0.98 0.01 0.3333333 0.3333333 0.98 0.3333333 0.01 0.01 0.3333333 0.3333333 0.01 0.3333333 0.01 0.98
18
0.3333333 0.3333333 0.01 0.3333333 0.98 0.01 0.3333333 0.3333333 0.98 0.3333333 0.01 0.01 0.3333333 0.3333333 0.01 0.3333333 0.01 0.98
2
0.2 0.8
2
0.1 0.9
3
0.92 0.03 0.05
2
0.04 0.96
12
0.95 0.01 0.98 0.05 0.04 0.09 0.01 0.9 0.01 0.9 0.01 0.05
2
0.05 0.95
48
0.97 0.01 0.5 0.01 0.01 0.97 0.5 0.01 0.01 0.6 0.97 0.01 0.01 0.01 0.48 0.97 0.97 0.01 0.48 0.01 0.01 0.38 0.01 0.01 0.01 0.01 0.01 0.01 0.01 0.01 0.01 0.97 0.97 0.01 0.01 0.01 0.01 0.97 0.01 0.01 0.01 0.01 0.01 0.01 0.01 0.01 0.01 0.97
3
0.05 0.9 0.05
6
0.01 0.05 0.19 0.9 0.8 0.05
9
0.95 0.04 0.01 0.04 0.95 0.04 0.01 0.01 0.95
96
0.97 0.05 0.97 0.2 0.01 0.01 0.01 0.01 0.01 0.01 0.01 0.2 0.97 0.01 0.97 0.01 0.01 0.97 0.01 0.97 0.1 0.01 0.4 0.01 0.01 0.25 0.01 0.75 0.01 0.29 0.01 0.9 0.3 0.15 0.97 0.7 0.01 0.01 0.01 0.01 0.01 0.01 0.01 0.01 0.84 0.01 0.58 0.01 0.01 0.25 0.01 0.04 0.01 0.3 0.01 0.08 0.49 0.25 0.01 0.09 0.01 0.08 0.01 0.38 0.08 0.01 0.97 0.01 0.05 0.01 0.01 0.01 0.01 0.45 0.01 0.01 0.97 0.4 0.97 0.01 0.2 0.59 0.01 0.01 0.01 0.9 0.01 0.6 0.9 0.01 0.01 0.01 0.01 0.97 0.01 0.97
2
0.01 0.99
24
1.0 0.95 1.0 0.01 0.99 0.95 0.95 0.01 0.0 0.04 0.0 0.95 0.01 0.04 0.04 0.01 0.0 0.01 0.0 0.04 0.0 0.01 0.01 0.98
18
0.98 0.98 0.01 0.98 0.01 0.69 0.01 0.01 0.98 0.01 0.01 0.3 0.01 0.01 0.01 0.01 0.98 0.01
12
0.1 0.95 0.1 0.95 0.01 0.05 0.9 0.05 0.9 0.05 0.99 0.95
12
0.98 0.5 0.95 0.05 0.01 0.49 0.04 0.9 0.01 0.01 0.01 0.05
6
0.98 0.3 0.01 0.4 0.01 0.3
48
0.97 0.01 0.01 0.03 0.01 0.97 0.01 0.01 0.01 0.01 0.97 0.01 0.01 0.01 0.01 0.95 0.97 0.01 0.01 0.94 0.01 0.97 0.01 0.88 0.01 0.01 0.97 0.01 0.01 0.01 0.01 0.04 0.97 0.01 0.01 0.1 0.01 0.97 0.01 0.01 0.01 0.01 0.97 0.01 0.01 0.01 0.01 0.01
96
0.97 0.97 0.97 0.97 0.3 0.95 0.01 0.01 0.95 0.97 0.01 0.97 0.97 0.5 0.97 0.01 0.4 0.97 0.01 0.97 0.97 0.3 0.97 0.01 0.01 0.01 0.01 0.01 0.68 0.03 0.01 0.97 0.03 0.01 0.97 0.01 0.01 0.48 0.01 0.01 0.58 0.01 0.01 0.01 0.01 0.68 0.01 0.01 0.01 0.01 0.01 0.01 0.01 0.01 0.01 0.01 0.01 0.01 0.01 0.01 0.01 0.01 0.01 0.97 0.01 0.01 0.97 0.01 0.01 0.01 0.01 0.01 0.01 0.01 0.01 0.01 0.01 0.01 0.97 0.01 0.01 0.01 0.01 0.01 0.01 0.01 0.01 0.01 0.01 0.01 0.01 0.01 0.01 0.01 0.01 0.97
12
0.05 0.05 0.05 0.93 0.01 0.01 0.01 0.93 0.01 0.01 0.01 0.93
32
0.97 0.97 0.97 0.01 0.97 0.97 0.01 0.01 0.01 0.01 0.01 0.01 0.01 0.01 0.97 0.01 0.01 0.01 0.01 0.97 0.01 0.01 0.01 0.01 0.01 0.01 0.01 0.01 0.01 0.01 0.01 0.97